c File: flat50_3_0.col
c
c SOURCE: Joseph Culberson (joe@cs.ualberta.ca)
c DESCRIPTION: Quasi-random coloring problem
c              generated with flatness = 0
c                             probability = 0.139
c                             known coloring = 3
c                             random seed = 1044
c              Creation Date:  Tue Jun  9 11:59:49 1998
c Maximum degree = 8 Minimum degree = 1
c p edge 50 115
c cnf created by edge2cnf
p cnf 150 545
-1 -2 0
-1 -3 0
-2 -3 0
1 2 3 0
-4 -5 0
-4 -6 0
-5 -6 0
4 5 6 0
-7 -8 0
-7 -9 0
-8 -9 0
7 8 9 0
-10 -11 0
-10 -12 0
-11 -12 0
10 11 12 0
-13 -14 0
-13 -15 0
-14 -15 0
13 14 15 0
-16 -17 0
-16 -18 0
-17 -18 0
16 17 18 0
-19 -20 0
-19 -21 0
-20 -21 0
19 20 21 0
-22 -23 0
-22 -24 0
-23 -24 0
22 23 24 0
-25 -26 0
-25 -27 0
-26 -27 0
25 26 27 0
-28 -29 0
-28 -30 0
-29 -30 0
28 29 30 0
-31 -32 0
-31 -33 0
-32 -33 0
31 32 33 0
-34 -35 0
-34 -36 0
-35 -36 0
34 35 36 0
-37 -38 0
-37 -39 0
-38 -39 0
37 38 39 0
-40 -41 0
-40 -42 0
-41 -42 0
40 41 42 0
-43 -44 0
-43 -45 0
-44 -45 0
43 44 45 0
-46 -47 0
-46 -48 0
-47 -48 0
46 47 48 0
-49 -50 0
-49 -51 0
-50 -51 0
49 50 51 0
-52 -53 0
-52 -54 0
-53 -54 0
52 53 54 0
-55 -56 0
-55 -57 0
-56 -57 0
55 56 57 0
-58 -59 0
-58 -60 0
-59 -60 0
58 59 60 0
-61 -62 0
-61 -63 0
-62 -63 0
61 62 63 0
-64 -65 0
-64 -66 0
-65 -66 0
64 65 66 0
-67 -68 0
-67 -69 0
-68 -69 0
67 68 69 0
-70 -71 0
-70 -72 0
-71 -72 0
70 71 72 0
-73 -74 0
-73 -75 0
-74 -75 0
73 74 75 0
-76 -77 0
-76 -78 0
-77 -78 0
76 77 78 0
-79 -80 0
-79 -81 0
-80 -81 0
79 80 81 0
-82 -83 0
-82 -84 0
-83 -84 0
82 83 84 0
-85 -86 0
-85 -87 0
-86 -87 0
85 86 87 0
-88 -89 0
-88 -90 0
-89 -90 0
88 89 90 0
-91 -92 0
-91 -93 0
-92 -93 0
91 92 93 0
-94 -95 0
-94 -96 0
-95 -96 0
94 95 96 0
-97 -98 0
-97 -99 0
-98 -99 0
97 98 99 0
-100 -101 0
-100 -102 0
-101 -102 0
100 101 102 0
-103 -104 0
-103 -105 0
-104 -105 0
103 104 105 0
-106 -107 0
-106 -108 0
-107 -108 0
106 107 108 0
-109 -110 0
-109 -111 0
-110 -111 0
109 110 111 0
-112 -113 0
-112 -114 0
-113 -114 0
112 113 114 0
-115 -116 0
-115 -117 0
-116 -117 0
115 116 117 0
-118 -119 0
-118 -120 0
-119 -120 0
118 119 120 0
-121 -122 0
-121 -123 0
-122 -123 0
121 122 123 0
-124 -125 0
-124 -126 0
-125 -126 0
124 125 126 0
-127 -128 0
-127 -129 0
-128 -129 0
127 128 129 0
-130 -131 0
-130 -132 0
-131 -132 0
130 131 132 0
-133 -134 0
-133 -135 0
-134 -135 0
133 134 135 0
-136 -137 0
-136 -138 0
-137 -138 0
136 137 138 0
-139 -140 0
-139 -141 0
-140 -141 0
139 140 141 0
-142 -143 0
-142 -144 0
-143 -144 0
142 143 144 0
-145 -146 0
-145 -147 0
-146 -147 0
145 146 147 0
-148 -149 0
-148 -150 0
-149 -150 0
148 149 150 0
-52 -1 0
-53 -2 0
-54 -3 0
-61 -1 0
-62 -2 0
-63 -3 0
-91 -1 0
-92 -2 0
-93 -3 0
-94 -1 0
-95 -2 0
-96 -3 0
-106 -1 0
-107 -2 0
-108 -3 0
-127 -1 0
-128 -2 0
-129 -3 0
-133 -1 0
-134 -2 0
-135 -3 0
-73 -4 0
-74 -5 0
-75 -6 0
-85 -4 0
-86 -5 0
-87 -6 0
-124 -4 0
-125 -5 0
-126 -6 0
-130 -4 0
-131 -5 0
-132 -6 0
-136 -4 0
-137 -5 0
-138 -6 0
-55 -7 0
-56 -8 0
-57 -9 0
-70 -7 0
-71 -8 0
-72 -9 0
-76 -7 0
-77 -8 0
-78 -9 0
-106 -7 0
-107 -8 0
-108 -9 0
-148 -7 0
-149 -8 0
-150 -9 0
-73 -10 0
-74 -11 0
-75 -12 0
-79 -10 0
-80 -11 0
-81 -12 0
-94 -10 0
-95 -11 0
-96 -12 0
-106 -10 0
-107 -11 0
-108 -12 0
-118 -10 0
-119 -11 0
-120 -12 0
-115 -13 0
-116 -14 0
-117 -15 0
-118 -13 0
-119 -14 0
-120 -15 0
-52 -16 0
-53 -17 0
-54 -18 0
-67 -16 0
-68 -17 0
-69 -18 0
-121 -16 0
-122 -17 0
-123 -18 0
-61 -19 0
-62 -20 0
-63 -21 0
-70 -19 0
-71 -20 0
-72 -21 0
-112 -19 0
-113 -20 0
-114 -21 0
-73 -22 0
-74 -23 0
-75 -24 0
-106 -22 0
-107 -23 0
-108 -24 0
-121 -22 0
-122 -23 0
-123 -24 0
-142 -22 0
-143 -23 0
-144 -24 0
-148 -22 0
-149 -23 0
-150 -24 0
-85 -25 0
-86 -26 0
-87 -27 0
-97 -25 0
-98 -26 0
-99 -27 0
-109 -25 0
-110 -26 0
-111 -27 0
-112 -25 0
-113 -26 0
-114 -27 0
-79 -28 0
-80 -29 0
-81 -30 0
-85 -28 0
-86 -29 0
-87 -30 0
-88 -28 0
-89 -29 0
-90 -30 0
-100 -28 0
-101 -29 0
-102 -30 0
-133 -28 0
-134 -29 0
-135 -30 0
-142 -28 0
-143 -29 0
-144 -30 0
-82 -31 0
-83 -32 0
-84 -33 0
-112 -31 0
-113 -32 0
-114 -33 0
-127 -31 0
-128 -32 0
-129 -33 0
-52 -34 0
-53 -35 0
-54 -36 0
-64 -34 0
-65 -35 0
-66 -36 0
-82 -34 0
-83 -35 0
-84 -36 0
-142 -34 0
-143 -35 0
-144 -36 0
-64 -37 0
-65 -38 0
-66 -39 0
-79 -37 0
-80 -38 0
-81 -39 0
-88 -37 0
-89 -38 0
-90 -39 0
-97 -37 0
-98 -38 0
-99 -39 0
-118 -37 0
-119 -38 0
-120 -39 0
-124 -37 0
-125 -38 0
-126 -39 0
-127 -37 0
-128 -38 0
-129 -39 0
-142 -37 0
-143 -38 0
-144 -39 0
-58 -40 0
-59 -41 0
-60 -42 0
-88 -40 0
-89 -41 0
-90 -42 0
-100 -40 0
-101 -41 0
-102 -42 0
-115 -40 0
-116 -41 0
-117 -42 0
-52 -43 0
-53 -44 0
-54 -45 0
-64 -43 0
-65 -44 0
-66 -45 0
-70 -43 0
-71 -44 0
-72 -45 0
-112 -43 0
-113 -44 0
-114 -45 0
-121 -43 0
-122 -44 0
-123 -45 0
-127 -43 0
-128 -44 0
-129 -45 0
-148 -43 0
-149 -44 0
-150 -45 0
-88 -46 0
-89 -47 0
-90 -48 0
-100 -46 0
-101 -47 0
-102 -48 0
-103 -46 0
-104 -47 0
-105 -48 0
-133 -46 0
-134 -47 0
-135 -48 0
-91 -49 0
-92 -50 0
-93 -51 0
-118 -49 0
-119 -50 0
-120 -51 0
-115 -52 0
-116 -53 0
-117 -54 0
-136 -52 0
-137 -53 0
-138 -54 0
-124 -55 0
-125 -56 0
-126 -57 0
-106 -58 0
-107 -59 0
-108 -60 0
-118 -58 0
-119 -59 0
-120 -60 0
-130 -58 0
-131 -59 0
-132 -60 0
-145 -58 0
-146 -59 0
-147 -60 0
-124 -61 0
-125 -62 0
-126 -63 0
-112 -64 0
-113 -65 0
-114 -66 0
-139 -64 0
-140 -65 0
-141 -66 0
-142 -64 0
-143 -65 0
-144 -66 0
-109 -67 0
-110 -68 0
-111 -69 0
-121 -67 0
-122 -68 0
-123 -69 0
-133 -67 0
-134 -68 0
-135 -69 0
-115 -70 0
-116 -71 0
-117 -72 0
-130 -76 0
-131 -77 0
-132 -78 0
-133 -76 0
-134 -77 0
-135 -78 0
-124 -79 0
-125 -80 0
-126 -81 0
-145 -79 0
-146 -80 0
-147 -81 0
-148 -79 0
-149 -80 0
-150 -81 0
-103 -82 0
-104 -83 0
-105 -84 0
-106 -82 0
-107 -83 0
-108 -84 0
-121 -82 0
-122 -83 0
-123 -84 0
-127 -82 0
-128 -83 0
-129 -84 0
-127 -85 0
-128 -86 0
-129 -87 0
-106 -88 0
-107 -89 0
-108 -90 0
-109 -88 0
-110 -89 0
-111 -90 0
-136 -88 0
-137 -89 0
-138 -90 0
-112 -91 0
-113 -92 0
-114 -93 0
-136 -91 0
-137 -92 0
-138 -93 0
-142 -91 0
-143 -92 0
-144 -93 0
-145 -91 0
-146 -92 0
-147 -93 0
-106 -94 0
-107 -95 0
-108 -96 0
-118 -94 0
-119 -95 0
-120 -96 0
-103 -100 0
-104 -101 0
-105 -102 0
-112 -100 0
-113 -101 0
-114 -102 0
-133 -100 0
-134 -101 0
-135 -102 0
-148 -100 0
-149 -101 0
-150 -102 0
